
******************************************************************************
This program contains Ipopt, a library for large-scale nonlinear optimization.
 Ipopt is released as open source code under the Eclipse Public License (EPL).
         For more information visit http://projects.coin-or.org/Ipopt
******************************************************************************

This is Ipopt version 3.12.6, running with linear solver ma57.

Number of nonzeros in equality constraint Jacobian...:    20310
Number of nonzeros in inequality constraint Jacobian.:        0
Number of nonzeros in Lagrangian Hessian.............:     8406

Total number of variables............................:     2763
                     variables with only lower bounds:        0
                variables with lower and upper bounds:        0
                     variables with only upper bounds:        0
Total number of equality constraints.................:     2763
Total number of inequality constraints...............:        0
        inequality constraints with only lower bounds:        0
   inequality constraints with lower and upper bounds:        0
        inequality constraints with only upper bounds:        0

iter    objective    inf_pr   inf_du lg(mu)  ||d||  lg(rg) alpha_du alpha_pr  ls
   0  0.0000000e+00 4.50e+02 0.00e+00  -1.0 0.00e+00    -  0.00e+00 0.00e+00   0
Reallocating memory for MA57: lfact (1178764)
Reallocating memory for MA57: lfact (1323605)
   1  0.0000000e+00 5.40e+01 1.55e+07  -1.0 4.31e+03  -2.0 1.00e+00 1.00e+00h  1
   2  0.0000000e+00 1.38e+01 3.83e+06  -1.0 2.14e+03  -1.6 1.00e+00 1.00e+00h  1
   3  0.0000000e+00 4.66e+00 1.00e+06  -1.0 1.07e+03  -1.1 1.00e+00 1.00e+00h  1
   4  0.0000000e+00 2.52e+00 3.61e+05  -1.0 5.39e+02  -1.6 1.00e+00 1.00e+00h  1
   5  0.0000000e+00 2.16e+00 6.54e+05  -1.0 3.66e+02  -2.1 1.00e+00 1.00e+00h  1
   6  0.0000000e+00 8.30e-01 6.99e+05  -1.0 2.65e+02  -2.6 1.00e+00 1.00e+00h  1
   7  0.0000000e+00 3.33e-01 1.22e+05  -1.0 7.83e+01  -3.1 1.00e+00 1.00e+00h  1
   8  0.0000000e+00 3.33e-01 6.35e+03  -1.0 1.27e+01  -3.5 1.00e+00 1.00e+00h  1
   9  0.0000000e+00 3.33e-01 1.06e+01  -1.0 1.23e+00  -4.0 1.00e+00 1.00e+00h  1
iter    objective    inf_pr   inf_du lg(mu)  ||d||  lg(rg) alpha_du alpha_pr  ls
  10  0.0000000e+00 3.33e-01 5.56e-04  -1.7 1.96e-02  -4.5 1.00e+00 1.00e+00h  1
  11  0.0000000e+00 3.33e-01 7.70e-06  -1.7 2.24e-04  -5.0 1.00e+00 1.00e+00h  1
Reallocating memory for MA57: lfact (2149814)
  12  0.0000000e+00 3.33e-01 3.81e-06  -1.7 6.45e-05  -4.5 1.00e+00 1.00e+00s 22
Reallocating memory for MA57: lfact (2825509)
  13r 0.0000000e+00 3.33e-01 9.99e+02  -0.5 0.00e+00  -5.0 0.00e+00 0.00e+00R  1
  14r 0.0000000e+00 3.33e-01 7.49e+02  -0.5 1.29e-09    -  1.00e+00 2.50e-01f  3
  15r 0.0000000e+00 3.33e-01 3.33e-06  -0.5 9.65e-10    -  1.00e+00 1.00e+00h  1
  16r 0.0000000e+00 3.33e-01 1.54e-08  -2.8 3.32e-04    -  1.00e+00 1.00e+00f  1
  17r 0.0000000e+00 3.33e-01 5.43e-12  -6.3 1.54e-06    -  1.00e+00 1.00e+00f  1
Reallocating memory for MA57: lfact (3360799)

Number of Iterations....: 17

                                   (scaled)                 (unscaled)
Objective...............:   0.0000000000000000e+00    0.0000000000000000e+00
Dual infeasibility......:   9.6502053147182381e-14    9.6502053147182381e-14
Constraint violation....:   3.3333333333407467e-01    3.3333333333407467e-01
Complementarity.........:   0.0000000000000000e+00    0.0000000000000000e+00
Overall NLP error.......:   3.3333333333407467e-01    3.3333333333407467e-01


Number of objective function evaluations             = 44
Number of objective gradient evaluations             = 15
Number of equality constraint evaluations            = 44
Number of inequality constraint evaluations          = 0
Number of equality constraint Jacobian evaluations   = 20
Number of inequality constraint Jacobian evaluations = 0
Number of Lagrangian Hessian evaluations             = 18
Total CPU secs in IPOPT (w/o function evaluations)   =      3.523
Total CPU secs in NLP function evaluations           =      0.050

EXIT: Converged to a point of local infeasibility. Problem may be infeasible.
Note: The following floating-point exceptions are signalling: IEEE_OVERFLOW_FLAG

************************ CUTEst statistics ************************


 Package used            :  IPOPT
 Problem                 :  FLOSP2HM  
 # variables             =            2883
 # constraints           =            2763
 # objective functions   =        0.6000000E+02
 # objective gradients   =        0.1600000E+02
 # objective Hessians    =        0.1800000E+02
 # Hessian-vector prdct  =        0.0000000E+00
 # constraints functions =        0.6600000E+02
 # constraints gradients =        0.2200000E+02
 # constraints Hessians  =        0.1800000E+02
 Exit code               =               2
 Final f                 =   0.0000000E+00
 Set up time             =            0.07 seconds
 Solve time              =            9.52 seconds


******************************************************************

System Time =       2.3810000420 s.
